1214,490
321,46
448,639
635,548
707,419
611,309
591,406
681,946
641,326
464,833
709,397
523,624
575,512
810,7
1108,189
874,140
609,458
802,494
663,349
708,491
681,256
653,229
817,139
468,298
576,551
427,660
487,547
1137,258
681,106
651,406
921,528
414,542
